Instance Name : r108
Date : 2022-07-18
Solution
Route 1 : 52 88 62 11 64 49 36 47 19 7
Route 2 : 27 1 69 70 30 20 66 32 90 63 10 31
Route 3 : 94 92 98 44 14 38 86 16 91 100 37 97
Route 4 : 53 40 73 72 74 22 41 58
Route 5 : 26 12 76 3 79 29 24 80 68 77
Route 6 : 28 50 33 81 51 9 71 65 35 34 78
Route 7 : 6 96 99 5 84 17 61 85 93 59 95
Route 8 : 89 60 83 45 8 46 48 82 18
Route 9 : 21 75 56 23 67 39 55 4 25 54
Route 10 : 2 57 15 43 42 87 13
